(set-info :smt-lib-version 2.6)
(set-logic AUFBVFPDTNIRA)
(set-info :source |
Generated by: AdaCore
Generated on: 2020-03-06
Generator: SPARK
Application: Program verification for Ada
Target solver: CVC4
|)
(set-info :license "https://creativecommons.org/licenses/by/4.0/")
(set-info :category "industrial")
(set-info :status unknown)
;;; generated by SMT-LIB2 driver
;;; SMT-LIB2 driver: bit-vectors, common part
;;; SMT-LIB2: integer arithmetic
(declare-sort string 0)

(declare-datatypes ((tuple0 0))
(((Tuple0))))
(declare-sort us_private 0)

(declare-fun private__bool_eq (us_private us_private) Bool)

(declare-const us_null_ext__ us_private)

(declare-sort us_type_of_heap 0)

(declare-datatypes ((us_type_of_heap__ref 0))
(((us_type_of_heap__refqtmk (us_type_of_heap__content us_type_of_heap)))))
(declare-sort us_image 0)

(declare-datatypes ((int__ref 0))
(((int__refqtmk (int__content Int)))))
(declare-datatypes ((bool__ref 0))
(((bool__refqtmk (bool__content Bool)))))
(declare-datatypes ((us_fixed__ref 0))
(((us_fixed__refqtmk (us_fixed__content Int)))))
(declare-datatypes ((real__ref 0))
(((real__refqtmk (real__content Real)))))
(declare-datatypes ((us_private__ref 0))
(((us_private__refqtmk (us_private__content us_private)))))
(define-fun int__ref___projection ((a int__ref)) Int (int__content a))

(define-fun us_fixed__ref___projection ((a us_fixed__ref)) Int (us_fixed__content
                                                               a))

(define-fun bool__ref___projection ((a bool__ref)) Bool (bool__content a))

(define-fun real__ref___projection ((a real__ref)) Real (real__content a))

(define-fun us_private__ref___projection ((a us_private__ref)) us_private 
  (us_private__content a))

(define-fun abs1 ((x Int)) Int (ite (<= 0 x) x (- x)))

;; Abs_le
  (assert
  (forall ((x Int) (y Int)) (= (<= (abs1 x) y) (and (<= (- y) x) (<= x y)))))

;; Abs_pos
  (assert (forall ((x Int)) (<= 0 (abs1 x))))

(declare-fun div1 (Int Int) Int)

(declare-fun mod1 (Int Int) Int)

;; Div_mod
  (assert
  (forall ((x Int) (y Int))
  (=> (not (= y 0)) (= x (+ (* y (div1 x y)) (mod1 x y))))))

;; Div_bound
  (assert
  (forall ((x Int) (y Int))
  (=> (and (<= 0 x) (< 0 y)) (and (<= 0 (div1 x y)) (<= (div1 x y) x)))))

;; Mod_bound
  (assert
  (forall ((x Int) (y Int))
  (=> (not (= y 0))
  (and (< (- (abs1 y)) (mod1 x y)) (< (mod1 x y) (abs1 y))))))

;; Div_sign_pos
  (assert
  (forall ((x Int) (y Int)) (=> (and (<= 0 x) (< 0 y)) (<= 0 (div1 x y)))))

;; Div_sign_neg
  (assert
  (forall ((x Int) (y Int)) (=> (and (<= x 0) (< 0 y)) (<= (div1 x y) 0))))

;; Mod_sign_pos
  (assert
  (forall ((x Int) (y Int))
  (=> (and (<= 0 x) (not (= y 0))) (<= 0 (mod1 x y)))))

;; Mod_sign_neg
  (assert
  (forall ((x Int) (y Int))
  (=> (and (<= x 0) (not (= y 0))) (<= (mod1 x y) 0))))

;; Rounds_toward_zero
  (assert
  (forall ((x Int) (y Int))
  (=> (not (= y 0)) (<= (abs1 (* (div1 x y) y)) (abs1 x)))))

;; Div_1
  (assert (forall ((x Int)) (= (div1 x 1) x)))

;; Mod_1
  (assert (forall ((x Int)) (= (mod1 x 1) 0)))

;; Div_inf
  (assert
  (forall ((x Int) (y Int)) (=> (and (<= 0 x) (< x y)) (= (div1 x y) 0))))

;; Mod_inf
  (assert
  (forall ((x Int) (y Int)) (=> (and (<= 0 x) (< x y)) (= (mod1 x y) x))))

;; Div_mult
  (assert
  (forall ((x Int) (y Int) (z Int))
  (! (=> (and (< 0 x) (and (<= 0 y) (<= 0 z)))
     (= (div1 (+ (* x y) z) x) (+ y (div1 z x)))) :pattern ((div1
                                                            (+ (* x y) z) x)) )))

;; Mod_mult
  (assert
  (forall ((x Int) (y Int) (z Int))
  (! (=> (and (< 0 x) (and (<= 0 y) (<= 0 z)))
     (= (mod1 (+ (* x y) z) x) (mod1 z x))) :pattern ((mod1 (+ (* x y) z) x)) )))

;; Div_unique
  (assert
  (forall ((x Int) (y Int) (q Int))
  (=> (< 0 y) (=> (and (<= (* q y) x) (< x (+ (* q y) y))) (= (div x y) q)))))

;; Div_bound
  (assert
  (forall ((x Int) (y Int))
  (=> (and (<= 0 x) (< 0 y)) (and (<= 0 (div x y)) (<= (div x y) x)))))

;; Div_inf
  (assert
  (forall ((x Int) (y Int)) (=> (and (<= 0 x) (< x y)) (= (div x y) 0))))

;; Div_inf_neg
  (assert
  (forall ((x Int) (y Int))
  (=> (and (< 0 x) (<= x y)) (= (div (- x) y) (- 1)))))

;; Mod_0
  (assert (forall ((y Int)) (=> (not (= y 0)) (= (mod 0 y) 0))))

;; Div_1_left
  (assert (forall ((y Int)) (=> (< 1 y) (= (div 1 y) 0))))

;; Div_minus1_left
  (assert (forall ((y Int)) (=> (< 1 y) (= (div (- 1) y) (- 1)))))

;; Mod_1_left
  (assert (forall ((y Int)) (=> (< 1 y) (= (mod 1 y) 1))))

;; Mod_minus1_left
  (assert
  (forall ((y Int))
  (! (=> (< 1 y) (= (mod (- 1) y) (- y 1))) :pattern ((mod (- 1) y)) )))

;; Div_mult
  (assert
  (forall ((x Int) (y Int) (z Int))
  (! (=> (< 0 x) (= (div (+ (* x y) z) x) (+ y (div z x)))) :pattern ((div (+ (* x y) z) x)) )))

;; Mod_mult
  (assert
  (forall ((x Int) (y Int) (z Int))
  (! (=> (< 0 x) (= (mod (+ (* x y) z) x) (mod z x))) :pattern ((mod (+ (* x y) z) x)) )))

(define-fun mod2 ((x Int)
  (y Int)) Int (ite (< 0 y) (mod x y) (+ (mod x y) y)))

(declare-fun nth ((_ BitVec 64) Int) Bool)

(declare-fun lsr ((_ BitVec 64) Int) (_ BitVec 64))

(declare-fun asr ((_ BitVec 64) Int) (_ BitVec 64))

(declare-fun lsl ((_ BitVec 64) Int) (_ BitVec 64))

(declare-fun rotate_right1 ((_ BitVec 64) Int) (_ BitVec 64))

(declare-fun rotate_left1 ((_ BitVec 64) Int) (_ BitVec 64))

(declare-fun pow2 (Int) Int)

(define-fun to_int1 ((x (_ BitVec 64))) Int (ite (bvsge x (_ bv0 64))
                                            (bv2nat x)
                                            (- (- 18446744073709551616 (bv2nat x)))))

(define-fun uint_in_range ((i Int)) Bool (and (<= 0 i)
                                         (<= i 18446744073709551615)))

;; lsr_bv_is_lsr
  (assert
  (forall ((x (_ BitVec 64)) (n (_ BitVec 64)))
  (= (bvlshr x n) (lsr x (bv2nat n)))))

;; asr_bv_is_asr
  (assert
  (forall ((x (_ BitVec 64)) (n (_ BitVec 64)))
  (= (bvashr x n) (asr x (bv2nat n)))))

;; lsl_bv_is_lsl
  (assert
  (forall ((x (_ BitVec 64)) (n (_ BitVec 64)))
  (= (bvshl x n) (lsl x (bv2nat n)))))

;; rotate_left_bv_is_rotate_left
  (assert
  (forall ((v (_ BitVec 64)) (n (_ BitVec 64)))
  (= (bvor (bvshl v (bvurem n (_ bv64 64))) (bvlshr v (bvsub (_ bv64 64) (bvurem n (_ bv64 64))))) 
  (rotate_left1 v (bv2nat n)))))

;; rotate_right_bv_is_rotate_right
  (assert
  (forall ((v (_ BitVec 64)) (n (_ BitVec 64)))
  (= (bvor (bvlshr v (bvurem n (_ bv64 64))) (bvshl v (bvsub (_ bv64 64) (bvurem n (_ bv64 64))))) 
  (rotate_right1 v (bv2nat n)))))

(declare-fun nth_bv ((_ BitVec 64) (_ BitVec 64)) Bool)

;; nth_bv_def
  (assert
  (forall ((x (_ BitVec 64)) (i (_ BitVec 64)))
  (= (= (nth_bv x i) true)
  (not (= (bvand (bvlshr x i) #x0000000000000001) #x0000000000000000)))))

;; Nth_bv_is_nth
  (assert
  (forall ((x (_ BitVec 64)) (i (_ BitVec 64)))
  (= (nth x (bv2nat i)) (nth_bv x i))))

;; Nth_bv_is_nth2
  (assert
  (forall ((x (_ BitVec 64)) (i Int))
  (=> (and (<= 0 i) (< i 18446744073709551616))
  (= (nth_bv x ((_ int2bv 64) i)) (nth x i)))))

(declare-fun eq_sub_bv ((_ BitVec 64) (_ BitVec 64) (_ BitVec 64)
  (_ BitVec 64)) Bool)

;; eq_sub_bv_def
  (assert
  (forall ((a (_ BitVec 64)) (b (_ BitVec 64)) (i (_ BitVec 64))
  (n (_ BitVec 64)))
  (let ((mask (bvshl (bvsub (bvshl #x0000000000000001 n) #x0000000000000001) i)))
  (= (eq_sub_bv a b i n) (= (bvand b mask) (bvand a mask))))))

(define-fun eq_sub ((a (_ BitVec 64)) (b (_ BitVec 64)) (i Int)
  (n Int)) Bool (forall ((j Int))
                (=> (and (<= i j) (< j (+ i n))) (= (nth a j) (nth b j)))))

;; eq_sub_equiv
  (assert
  (forall ((a (_ BitVec 64)) (b (_ BitVec 64)) (i (_ BitVec 64))
  (n (_ BitVec 64)))
  (= (eq_sub a b (bv2nat i) (bv2nat n)) (eq_sub_bv a b i n))))

(declare-datatypes ((t__ref 0))
(((t__refqtmk (t__content (_ BitVec 64))))))
(declare-fun power ((_ BitVec 64) Int) (_ BitVec 64))

(define-fun bv_min ((x (_ BitVec 64))
  (y (_ BitVec 64))) (_ BitVec 64) (ite (bvule x y) x y))

(define-fun bv_max ((x (_ BitVec 64))
  (y (_ BitVec 64))) (_ BitVec 64) (ite (bvule x y) y x))

(define-fun min ((x Int) (y Int)) Int (ite (<= x y) x y))

(define-fun max ((x Int) (y Int)) Int (ite (<= x y) y x))

;; Min_r
  (assert (forall ((x Int) (y Int)) (=> (<= y x) (= (min x y) y))))

;; Max_l
  (assert (forall ((x Int) (y Int)) (=> (<= y x) (= (max x y) x))))

;; Min_comm
  (assert (forall ((x Int) (y Int)) (= (min x y) (min y x))))

;; Max_comm
  (assert (forall ((x Int) (y Int)) (= (max x y) (max y x))))

;; Min_assoc
  (assert
  (forall ((x Int) (y Int) (z Int)) (= (min (min x y) z) (min x (min y z)))))

;; Max_assoc
  (assert
  (forall ((x Int) (y Int) (z Int)) (= (max (max x y) z) (max x (max y z)))))

(declare-sort integer 0)

(declare-fun integerqtint (integer) Int)

;; integer'axiom
  (assert
  (forall ((i integer))
  (and (<= (- 2147483648) (integerqtint i)) (<= (integerqtint i) 2147483647))))

(define-fun in_range ((x Int)) Bool (and (<= (- 2147483648) x)
                                    (<= x 2147483647)))

(declare-fun attr__ATTRIBUTE_IMAGE (Int) us_image)

(declare-fun attr__ATTRIBUTE_VALUE__pre_check (us_image) Bool)

(declare-fun attr__ATTRIBUTE_VALUE (us_image) Int)

(declare-fun user_eq (integer integer) Bool)

(declare-const dummy integer)

(declare-datatypes ((integer__ref 0))
(((integer__refqtmk (integer__content integer)))))
(define-fun integer__ref_integer__content__projection ((a integer__ref)) integer 
  (integer__content a))

(define-fun dynamic_invariant ((temp___expr_18 Int) (temp___is_init_14 Bool)
  (temp___skip_constant_15 Bool) (temp___do_toplevel_16 Bool)
  (temp___do_typ_inv_17 Bool)) Bool (=>
                                    (or (= temp___is_init_14 true)
                                    (<= (- 2147483648) 2147483647)) (in_range
                                    temp___expr_18)))

(declare-fun to_address ((_ BitVec 64)) (_ BitVec 64))

(declare-fun to_address__function_guard ((_ BitVec 64) (_ BitVec 64)) Bool)

(declare-sort address 0)

(declare-const attr__ATTRIBUTE_MODULUS (_ BitVec 64))

(declare-fun attr__ATTRIBUTE_IMAGE1 ((_ BitVec 64)) us_image)

(declare-fun attr__ATTRIBUTE_VALUE__pre_check1 (us_image) Bool)

(declare-fun attr__ATTRIBUTE_VALUE1 (us_image) (_ BitVec 64))

(declare-fun user_eq1 (address address) Bool)

(declare-const dummy1 address)

(declare-datatypes ((address__ref 0))
(((address__refqtmk (address__content address)))))
(define-fun address__ref_address__content__projection ((a address__ref)) address 
  (address__content a))

(define-fun dynamic_invariant1 ((temp___expr_183 (_ BitVec 64))
  (temp___is_init_179 Bool) (temp___skip_constant_180 Bool)
  (temp___do_toplevel_181 Bool) (temp___do_typ_inv_182 Bool)) Bool true)

(declare-sort integer_address 0)

(declare-const attr__ATTRIBUTE_MODULUS1 (_ BitVec 64))

(declare-fun attr__ATTRIBUTE_IMAGE2 ((_ BitVec 64)) us_image)

(declare-fun attr__ATTRIBUTE_VALUE__pre_check2 (us_image) Bool)

(declare-fun attr__ATTRIBUTE_VALUE2 (us_image) (_ BitVec 64))

(declare-fun user_eq2 (integer_address integer_address) Bool)

(declare-const dummy2 integer_address)

(declare-datatypes ((integer_address__ref 0))
(((integer_address__refqtmk (integer_address__content integer_address)))))
(define-fun integer_address__ref_integer_address__content__projection ((a integer_address__ref)) integer_address 
  (integer_address__content a))

(define-fun dynamic_invariant2 ((temp___expr_190 (_ BitVec 64))
  (temp___is_init_186 Bool) (temp___skip_constant_187 Bool)
  (temp___do_toplevel_188 Bool) (temp___do_typ_inv_189 Bool)) Bool true)

;; to_address__post_axiom
  (assert
  (forall ((value (_ BitVec 64)))
  (! (=> (dynamic_invariant2 value true true true true) (dynamic_invariant1
     (to_address value) true false true true)) :pattern ((to_address value)) )))

(declare-const buffer (_ BitVec 64))

(declare-const attr__ATTRIBUTE_ADDRESS Int)

(declare-sort natural 0)

(declare-fun naturalqtint (natural) Int)

;; natural'axiom
  (assert
  (forall ((i natural))
  (and (<= 0 (naturalqtint i)) (<= (naturalqtint i) 2147483647))))

(define-fun in_range1 ((x Int)) Bool (and (<= 0 x) (<= x 2147483647)))

(declare-fun attr__ATTRIBUTE_IMAGE3 (Int) us_image)

(declare-fun attr__ATTRIBUTE_VALUE__pre_check3 (us_image) Bool)

(declare-fun attr__ATTRIBUTE_VALUE3 (us_image) Int)

(declare-fun user_eq3 (natural natural) Bool)

(declare-const dummy3 natural)

(declare-datatypes ((natural__ref 0))
(((natural__refqtmk (natural__content natural)))))
(define-fun natural__ref_natural__content__projection ((a natural__ref)) natural 
  (natural__content a))

(define-fun dynamic_invariant3 ((temp___expr_39 Int) (temp___is_init_35 Bool)
  (temp___skip_constant_36 Bool) (temp___do_toplevel_37 Bool)
  (temp___do_typ_inv_38 Bool)) Bool (=>
                                    (or (= temp___is_init_35 true)
                                    (<= 0 2147483647)) (in_range1
                                    temp___expr_39)))

(declare-fun zero (tuple0) Int)

(declare-fun zero__function_guard (Int tuple0) Bool)

;; zero__post_axiom
  (assert
  (forall ((us_void_param tuple0))
  (! (let ((result (zero us_void_param)))
     (=> (zero__function_guard result us_void_param) (dynamic_invariant3
     result true false true true))) :pattern ((zero us_void_param)) )))

;; zero__def_axiom
  (assert
  (forall ((us_void_param tuple0))
  (! (= (zero us_void_param) 0) :pattern ((zero us_void_param)) )))

(declare-fun omod ((_ BitVec 64) Int) Int)

(declare-fun omod__function_guard (Int (_ BitVec 64) Int) Bool)

(declare-sort storage_offset 0)

(declare-fun storage_offsetqtint (storage_offset) Int)

;; storage_offset'axiom
  (assert
  (forall ((i storage_offset))
  (and (<= (- 9223372036854775808) (storage_offsetqtint i))
  (<= (storage_offsetqtint i) 9223372036854775807))))

(define-fun in_range2 ((x Int)) Bool (and (<= (- 9223372036854775808) x)
                                     (<= x 9223372036854775807)))

(declare-fun attr__ATTRIBUTE_IMAGE4 (Int) us_image)

(declare-fun attr__ATTRIBUTE_VALUE__pre_check4 (us_image) Bool)

(declare-fun attr__ATTRIBUTE_VALUE4 (us_image) Int)

(declare-fun user_eq4 (storage_offset storage_offset) Bool)

(declare-const dummy4 storage_offset)

(declare-datatypes ((storage_offset__ref 0))
(((storage_offset__refqtmk (storage_offset__content storage_offset)))))
(define-fun storage_offset__ref_storage_offset__content__projection ((a storage_offset__ref)) storage_offset 
  (storage_offset__content a))

(define-fun dynamic_invariant4 ((temp___expr_197 Int)
  (temp___is_init_193 Bool) (temp___skip_constant_194 Bool)
  (temp___do_toplevel_195 Bool)
  (temp___do_typ_inv_196 Bool)) Bool (=>
                                     (or (= temp___is_init_193 true)
                                     (<= (- 9223372036854775808) 9223372036854775807))
                                     (in_range2 temp___expr_197)))

;; omod__post_axiom
  (assert
  (forall ((left (_ BitVec 64)))
  (forall ((right Int))
  (! (=>
     (and (dynamic_invariant1 left true true true true) (dynamic_invariant4
     right true true true true)) (dynamic_invariant4 (omod left right) true
     false true true)) :pattern ((omod left right)) ))))

(declare-fun oadd ((_ BitVec 64) Int) (_ BitVec 64))

(declare-fun oadd__function_guard ((_ BitVec 64) (_ BitVec 64) Int) Bool)

;; oadd__post_axiom
  (assert
  (forall ((left (_ BitVec 64)))
  (forall ((right Int))
  (! (=>
     (and (dynamic_invariant1 left true true true true) (dynamic_invariant4
     right true true true true)) (dynamic_invariant1 (oadd left right) true
     false true true)) :pattern ((oadd left right)) ))))

(declare-const attr__ATTRIBUTE_ADDRESS1 Int)

(declare-const attr__ATTRIBUTE_ADDRESS2 Int)

;; buffer__def_axiom
  (assert (= buffer (to_address #x0000000000000000)))

(assert
;; defqtvc
 ;; File "pixel.adb", line 3, characters 0-0
  (not
  (let ((pixel__buffer__assume (to_address #x0000000000000000)))
  (=> (dynamic_invariant1 pixel__buffer__assume true false true true)
  (=> (= pixel__buffer__assume buffer)
  (=> (dynamic_invariant1 buffer true false true true)
  (let ((o (zero Tuple0)))
  (=>
  (and (zero__function_guard o Tuple0)
  (and (dynamic_invariant3 o true false true true) (= o 0))) (not (= o 0))))))))))
(check-sat)
(exit)
